1 1 -2 0
1 1 -3 0
1 -1 -4 0
1 -5 6 0
1 5 -7 0
1 -5 -2 0
1 5 -8 0
1 5 9 0
1 -5 -10 0
1 -7 6 0
1 7 11 0
1 7 12 0
1 7 -2 0
1 -7 9 0
1 7 -5 0
1 7 13 0
1 2 14 0
1 -2 15 0
1 2 16 0
1 2 -17 0
1 2 -18 0
1 2 19 0
1 4 20 0
1 -4 -15 0
1 4 18 0
1 4 -19 0
1 -4 21 0
1 4 5 0
1 4 -1 0
1 12 22 0
1 12 23 0
1 12 7 0
1 12 24 0
1 -12 18 0
1 13 14 0
1 -13 22 0
1 -13 23 0
1 13 -7 0
1 13 -12 0
1 13 18 0
1 -13 -25 0
1 13 -5 0
1 13 26 0
1 -21 -27 0
1 21 -6 0
1 21 -16 0
1 21 2 0
1 21 8 0
1 -21 -9 0
1 16 -27 0
1 -16 6 0
1 16 23 0
1 -16 2 0
1 -16 -8 0
1 16 9 0
1 16 -4 0
1 19 27 0
1 19 6 0
1 19 15 0
1 -19 -28 0
1 19 -8 0
1 -19 -9 0
1 -19 29 0
1 19 -30 0
1 -19 -4 0
1 15 27 0
1 15 6 0
1 15 -31 0
1 -15 -22 0
1 15 8 0
1 15 19 0
1 15 -29 0
1 15 30 0
1 15 4 0
1 9 -15 0
1 9 -32 0
1 -9 33 0
1 -9 19 0
1 6 34 0
1 6 -35 0
1 -6 15 0
1 -6 -16 0
1 -6 7 0
1 6 -36 0
1 6 32 0
1 -6 9 0
1 -6 19 0
1 6 -21 0
1 8 27 0
1 8 37 0
1 8 -16 0
1 8 38 0
1 -8 39 0
1 -8 19 0
1 -8 40 0
1 27 -37 0
1 27 41 0
1 -27 -14 0
1 27 -15 0
1 27 16 0
1 27 7 0
1 27 36 0
1 -27 -18 0
1 27 -21 0
1 27 5 0
1 33 34 0
1 -33 -6 0
1 33 -31 0
1 33 -28 0
1 -33 -9 0
1 -33 30 0
1 -34 6 0
1 34 -28 0
1 -34 33 0
1 -34 9 0
1 34 29 0
1 32 -6 0
1 -32 28 0
1 32 -38 0
1 -32 9 0
1 32 30 0
1 42 -37 0
1 -42 6 0
1 42 -31 0
1 -42 28 0
1 42 -32 0
1 -42 -9 0
1 -30 42 0
1 -30 15 0
1 30 28 0
1 30 -32 0
1 -30 43 0
1 -30 44 0
1 -28 -42 0
1 28 15 0
1 28 45 0
1 -28 -46 0
1 -28 -32 0
1 -28 33 0
1 -28 -19 0
1 28 30 0
1 -28 44 0
1 -29 -42 0
1 -29 34 0
1 -29 15 0
1 29 46 0
1 -29 -47 0
1 29 -32 0
1 -29 -33 0
1 29 44 0
1 -29 -48 0
1 31 -42 0
1 31 34 0
1 -31 -49 0
1 31 -46 0
1 31 47 0
1 -31 -32 0
1 31 -33 0
1 -31 -48 0
1 31 40 0
1 -3 50 0
1 3 51 0
1 3 1 0
1 51 -52 0
1 -51 -50 0
1 -51 -24 0
1 51 53 0
1 10 52 0
1 -10 -54 0
1 -10 -11 0
1 10 -55 0
1 -10 53 0
1 10 -56 0
1 -10 5 0
1 -11 -52 0
1 11 57 0
1 -11 58 0
1 -11 53 0
1 11 -56 0
1 11 -59 0
1 11 10 0
1 -50 -11 0
1 -50 -53 0
1 53 50 0
1 53 22 0
1 -53 23 0
1 -53 60 0
1 53 -10 0
1 53 3 0
1 -52 -61 0
1 -52 62 0
1 -52 63 0
1 52 11 0
1 -52 51 0
1 52 55 0
1 52 -60 0
1 52 -64 0
1 -52 65 0
1 -52 -10 0
1 -52 3 0
1 -55 -52 0
1 55 -61 0
1 55 63 0
1 -55 66 0
1 -55 60 0
1 -55 -64 0
1 -55 10 0
1 -55 -3 0
1 25 50 0
1 -25 -57 0
1 -25 23 0
1 -25 54 0
1 -25 53 0
1 25 56 0
1 -25 59 0
1 25 13 0
1 -23 -50 0
1 23 -57 0
1 23 54 0
1 23 12 0
1 -23 53 0
1 -23 56 0
1 23 -59 0
1 23 -25 0
1 -23 -13 0
1 67 -22 0
1 67 54 0
1 67 -68 0
1 -67 -53 0
1 67 -56 0
1 -67 -59 0
1 67 -64 0
1 67 -69 0
1 22 62 0
1 -22 -54 0
1 -22 68 0
1 22 56 0
1 -22 70 0
1 -22 -69 0
1 -54 71 0
1 -54 37 0
1 -54 -22 0
1 -54 23 0
1 -54 72 0
1 -54 73 0
1 -54 38 0
1 54 -67 0
1 -54 -25 0
1 -59 71 0
1 59 -22 0
1 59 -23 0
1 59 73 0
1 -59 38 0
1 -59 18 0
1 -59 67 0
1 -59 25 0
1 57 71 0
1 -57 -22 0
1 57 23 0
1 57 11 0
1 -57 74 0
1 -57 67 0
1 56 -75 0
1 -56 61 0
1 -56 22 0
1 -56 57 0
1 -56 11 0
1 56 -73 0
1 -56 -60 0
1 -56 67 0
1 -56 10 0
1 -18 14 0
1 18 54 0
1 18 76 0
1 18 60 0
1 18 59 0
1 -18 70 0
1 18 -69 0
1 -18 -4 0
1 -14 -27 0
1 14 61 0
1 14 54 0
1 -14 2 0
1 -14 59 0
1 14 -69 0
1 -14 -13 0
1 14 -4 0
1 38 20 0
1 -38 -37 0
1 38 68 0
1 -38 77 0
1 38 -17 0
1 38 32 0
1 -38 -74 0
1 -38 59 0
1 38 70 0
1 -38 69 0
1 38 -26 0
1 -37 -20 0
1 37 42 0
1 37 75 0
1 37 54 0
1 37 -76 0
1 -37 -68 0
1 37 -17 0
1 -37 -8 0
1 37 59 0
1 37 -69 0
1 -37 -26 0
1 68 14 0
1 -68 -22 0
1 -68 78 0
1 -68 -38 0
1 -68 67 0
1 68 -69 0
1 -68 48 0
1 68 -40 0
1 -69 37 0
1 -69 -14 0
1 69 22 0
1 -69 -79 0
1 69 80 0
1 -69 -18 0
1 69 67 0
1 -69 81 0
1 -69 48 0
1 -76 37 0
1 76 14 0
1 -76 22 0
1 -76 -79 0
1 76 -82 0
1 76 73 0
1 -76 38 0
1 -76 18 0
1 76 -70 0
1 76 81 0
1 -70 -71 0
1 70 -22 0
1 70 -82 0
1 -70 67 0
1 70 83 0
1 70 -81 0
1 36 -20 0
1 -36 27 0
1 36 -31 0
1 -36 68 0
1 -36 8 0
1 -36 -17 0
1 36 -9 0
1 36 -29 0
1 -36 26 0
1 -40 27 0
1 40 -6 0
1 -40 31 0
1 -40 68 0
1 -40 -36 0
1 40 -8 0
1 40 -29 0
1 47 41 0
1 47 -35 0
1 -47 31 0
1 -47 -82 0
1 47 17 0
1 47 39 0
1 -47 69 0
1 -47 -48 0
1 47 26 0
1 -48 41 0
1 48 -35 0
1 48 -31 0
1 -48 -68 0
1 -48 -77 0
1 -48 -17 0
1 -48 39 0
1 48 84 0
1 48 26 0
1 48 -85 0
1 -17 -20 0
1 17 37 0
1 -17 -86 0
1 -17 87 0
1 17 46 0
1 -17 -47 0
1 17 -88 0
1 -17 -38 0
1 17 89 0
1 -17 44 0
1 17 -48 0
1 -17 40 0
1 20 90 0
1 20 86 0
1 -20 87 0
1 20 47 0
1 -20 36 0
1 -20 -4 0
1 -20 -91 0
1 20 44 0
1 20 -40 0
1 77 -86 0
1 77 -92 0
1 -77 47 0
1 77 12 0
1 -77 -93 0
1 -77 38 0
1 -77 -91 0
1 77 81 0
1 26 37 0
1 26 -86 0
1 -26 -92 0
1 26 79 0
1 -26 47 0
1 -26 38 0
1 26 -13 0
1 -26 -91 0
1 -26 94 0
1 -26 81 0
1 26 -48 0
1 26 95 0
1 -26 -40 0
1 46 20 0
1 46 -31 0
1 -46 -35 0
1 -46 -79 0
1 -46 -39 0
1 46 -84 0
1 -46 29 0
1 -46 30 0
1 46 -44 0
1 44 41 0
1 -44 31 0
1 44 -28 0
1 44 -46 0
1 44 17 0
1 44 39 0
1 -44 -84 0
1 44 29 0
1 -87 -35 0
1 87 -45 0
1 -87 -92 0
1 -87 -17 0
1 -87 -84 0
1 -87 96 0
1 -89 35 0
1 -89 49 0
1 -89 45 0
1 89 17 0
1 -89 -84 0
1 89 -96 0
1 89 43 0
1 -89 94 0
1 84 -97 0
1 -84 -35 0
1 -84 98 0
1 84 87 0
1 -84 46 0
1 84 -99 0
1 -84 -100 0
1 -35 -6 0
1 35 -97 0
1 35 -101 0
1 35 -87 0
1 35 46 0
1 35 47 0
1 -35 -102 0
1 35 84 0
1 35 89 0
1 -35 -44 0
1 -39 -41 0
1 -39 -97 0
1 39 -86 0
1 -39 8 0
1 -39 -102 0
1 39 103 0
1 39 -91 0
1 39 89 0
1 39 48 0
1 -41 27 0
1 -41 104 0
1 41 -97 0
1 41 105 0
1 -41 -86 0
1 41 87 0
1 -41 46 0
1 -41 -47 0
1 41 -102 0
1 41 106 0
1 41 -44 0
1 -41 -48 0
1 98 -45 0
1 98 86 0
1 98 43 0
1 100 -35 0
1 -100 98 0
1 100 84 0
1 100 96 0
1 -100 -43 0
1 107 -45 0
1 -107 84 0
1 -107 96 0
1 99 -107 0
1 99 -45 0
1 99 106 0
1 99 96 0
1 -99 43 0
1 43 -108 0
1 43 107 0
1 -43 -98 0
1 -43 109 0
1 43 99 0
1 43 -100 0
1 43 -30 0
1 -43 110 0
1 45 -108 0
1 -45 107 0
1 -45 28 0
1 -45 -98 0
1 -45 -111 0
1 -45 -99 0
1 -45 -89 0
1 -45 -43 0
1 -96 112 0
1 96 97 0
1 96 107 0
1 -96 -49 0
1 -96 -98 0
1 -96 87 0
1 96 -109 0
1 96 -102 0
1 -96 99 0
1 96 -29 0
1 -49 108 0
1 49 -97 0
1 49 -31 0
1 -49 -107 0
1 49 113 0
1 49 -98 0
1 49 -87 0
1 49 109 0
1 49 -114 0
1 49 96 0
1 49 -102 0
1 -49 -99 0
1 115 -116 0
1 -115 117 0
1 -115 -118 0
1 -115 119 0
1 115 3 0
1 -115 120 0
1 -117 116 0
1 117 121 0
1 -117 -51 0
1 -117 -119 0
1 117 -115 0
1 -122 -116 0
1 122 123 0
1 -122 -58 0
1 -122 -124 0
1 -122 -118 0
1 -122 -125 0
1 122 10 0
1 -122 -126 0
1 122 127 0
1 -58 116 0
1 -58 -124 0
1 58 118 0
1 -58 126 0
1 -58 -119 0
1 -58 -125 0
1 -58 -122 0
1 119 128 0
1 -119 -62 0
1 -119 121 0
1 119 -117 0
1 119 129 0
1 -119 64 0
1 119 -122 0
1 -119 115 0
1 121 119 0
1 121 -128 0
1 -121 62 0
1 121 130 0
1 -121 58 0
1 121 117 0
1 -121 -64 0
1 -118 -117 0
1 -118 131 0
1 118 -122 0
1 118 115 0
1 -116 -132 0
1 116 133 0
1 116 -134 0
1 -116 131 0
1 65 63 0
1 -65 55 0
1 65 119 0
1 -65 -131 0
1 65 126 0
1 -63 -135 0
1 -63 125 0
1 -64 62 0
1 -64 -121 0
1 64 -124 0
1 -64 -136 0
1 -64 -67 0
1 -64 134 0
1 64 -125 0
1 -64 -126 0
1 -62 52 0
1 62 22 0
1 62 -123 0
1 62 -55 0
1 62 125 0
1 -62 -126 0
1 62 137 0
1 -126 61 0
1 126 62 0
1 126 124 0
1 126 -138 0
1 -126 74 0
1 126 -65 0
1 126 139 0
1 -124 -75 0
1 124 61 0
1 -124 60 0
1 -124 -64 0
1 124 65 0
1 124 122 0
1 -125 -62 0
1 125 123 0
1 125 -58 0
1 -125 138 0
1 125 140 0
1 125 -129 0
1 -125 -64 0
1 -125 -141 0
1 -125 122 0
1 -123 -142 0
1 123 -143 0
1 -123 -128 0
1 123 -63 0
1 -123 -144 0
1 -123 125 0
1 -123 -140 0
1 123 129 0
1 -123 64 0
1 123 122 0
1 60 145 0
1 -60 52 0
1 60 -50 0
1 -60 61 0
1 -60 -57 0
1 -60 136 0
1 60 55 0
1 -60 53 0
1 -60 -56 0
1 -60 18 0
1 60 -129 0
1 60 -137 0
1 -61 145 0
1 -61 52 0
1 -61 14 0
1 61 50 0
1 -61 -57 0
1 -61 128 0
1 61 146 0
1 -61 55 0
1 -61 -53 0
1 -61 -56 0
1 -61 126 0
1 74 145 0
1 -74 -75 0
1 74 147 0
1 -74 57 0
1 -74 124 0
1 -74 66 0
1 74 -38 0
1 74 -56 0
1 -74 140 0
1 74 137 0
1 75 -37 0
1 75 143 0
1 -75 148 0
1 -75 -57 0
1 -75 124 0
1 75 136 0
1 -75 66 0
1 75 74 0
1 75 -56 0
1 75 137 0
1 -145 -149 0
1 -145 -82 0
1 145 -64 0
1 -145 -150 0
1 145 -85 0
1 136 -71 0
1 136 145 0
1 136 -61 0
1 -136 62 0
1 136 -149 0
1 -136 -73 0
1 136 74 0
1 -136 60 0
1 136 -150 0
1 136 85 0
1 -137 142 0
1 -137 -75 0
1 137 -61 0
1 137 -151 0
1 137 -62 0
1 137 -146 0
1 -137 -152 0
1 -137 64 0
1 -137 150 0
1 146 -142 0
1 146 -75 0
1 146 61 0
1 -146 -62 0
1 146 -149 0
1 146 152 0
1 -146 60 0
1 -146 -150 0
1 -146 137 0
1 -73 -147 0
1 73 57 0
1 -73 -54 0
1 -73 76 0
1 73 36 0
1 -73 -138 0
1 73 -70 0
1 -71 -145 0
1 71 -147 0
1 -71 -148 0
1 -71 57 0
1 -71 73 0
1 71 -66 0
1 -71 -153 0
1 -71 56 0
1 71 59 0
1 82 147 0
1 82 -148 0
1 82 -154 0
1 -82 47 0
1 82 152 0
1 82 -153 0
1 82 155 0
1 -82 156 0
1 -85 -145 0
1 85 148 0
1 85 154 0
1 85 72 0
1 85 -76 0
1 -85 82 0
1 85 -136 0
1 85 66 0
1 85 153 0
1 -85 -155 0
1 -85 70 0
1 85 -157 0
1 148 -75 0
1 -148 -50 0
1 -148 158 0
1 -148 -82 0
1 -148 -73 0
1 -148 -153 0
1 148 -94 0
1 -153 -71 0
1 -153 -75 0
1 -153 -148 0
1 -153 92 0
1 153 -79 0
1 -153 82 0
1 -153 -53 0
1 -153 -159 0
1 -153 -160 0
1 -153 94 0
1 153 -81 0
1 -153 -85 0
1 -147 71 0
1 -147 -52 0
1 147 -158 0
1 -147 73 0
1 -147 66 0
1 -147 74 0
1 147 160 0
1 147 161 0
1 -147 150 0
1 66 71 0
1 -66 -75 0
1 -66 147 0
1 66 158 0
1 66 149 0
1 -66 82 0
1 -66 -73 0
1 -66 74 0
1 66 160 0
1 -79 -72 0
1 -79 76 0
1 79 -46 0
1 79 -68 0
1 -79 -149 0
1 -79 -77 0
1 79 -153 0
1 -79 155 0
1 -79 156 0
1 79 70 0
1 -79 -81 0
1 79 26 0
1 81 -148 0
1 81 72 0
1 -81 -69 0
1 -81 68 0
1 81 -79 0
1 81 77 0
1 -92 83 0
1 92 72 0
1 92 -77 0
1 92 155 0
1 92 -156 0
1 -92 26 0
1 -94 154 0
1 -94 -72 0
1 94 92 0
1 -94 162 0
1 94 -77 0
1 -94 153 0
1 94 155 0
1 94 -156 0
1 94 -83 0
1 -94 -161 0
1 -94 -80 0
1 72 -156 0
1 72 -105 0
1 -72 -86 0
1 -72 -163 0
1 -72 92 0
1 -72 79 0
1 72 82 0
1 -72 -164 0
1 72 -91 0
1 72 94 0
1 -72 -85 0
1 -156 165 0
1 -156 -105 0
1 156 106 0
1 156 59 0
1 156 -91 0
1 -156 166 0
1 156 -94 0
1 156 81 0
1 154 -165 0
1 -154 57 0
1 -154 -167 0
1 -154 158 0
1 154 -92 0
1 154 -79 0
1 -154 164 0
1 154 168 0
1 -154 81 0
1 155 165 0
1 -155 -154 0
1 155 -167 0
1 -155 -158 0
1 155 92 0
1 155 -79 0
1 -155 -82 0
1 155 164 0
1 -155 -85 0
1 -86 20 0
1 86 41 0
1 -86 -72 0
1 86 -158 0
1 -86 -162 0
1 -86 78 0
1 -86 -17 0
1 -86 39 0
1 -86 -26 0
1 91 20 0
1 -91 -41 0
1 91 -72 0
1 91 162 0
1 91 78 0
1 91 77 0
1 -91 39 0
1 91 100 0
1 91 -156 0
1 -91 160 0
1 -91 -83 0
1 -91 80 0
1 105 107 0
1 -105 162 0
1 105 -78 0
1 105 -93 0
1 105 -39 0
1 105 -106 0
1 105 -156 0
1 105 -83 0
1 -105 95 0
1 -106 41 0
1 106 72 0
1 -106 88 0
1 106 -39 0
1 -106 99 0
1 106 156 0
1 106 83 0
1 106 95 0
1 -78 97 0
1 -78 -105 0
1 78 86 0
1 -78 68 0
1 78 -114 0
1 78 102 0
1 78 -106 0
1 -78 94 0
1 80 -169 0
1 80 92 0
1 80 170 0
1 -80 114 0
1 -80 102 0
1 80 -91 0
1 -80 94 0
1 -80 -69 0
1 -80 171 0
1 162 -169 0
1 -162 165 0
1 162 -83 0
1 -162 -86 0
1 -162 -92 0
1 -162 172 0
1 162 173 0
1 162 -91 0
1 83 169 0
1 -83 -174 0
1 83 86 0
1 -83 170 0
1 83 -164 0
1 -83 106 0
1 83 -70 0
1 -83 -175 0
1 -97 90 0
1 -97 -41 0
1 97 35 0
1 -97 49 0
1 -97 78 0
1 -97 -93 0
1 97 102 0
1 97 39 0
1 97 -84 0
1 -97 -96 0
1 97 -80 0
1 -97 -95 0
1 102 -41 0
1 102 49 0
1 102 -78 0
1 -102 39 0
1 -102 -164 0
1 -102 84 0
1 -102 -96 0
1 -102 -95 0
1 -112 90 0
1 -112 -101 0
1 112 49 0
1 112 -78 0
1 112 -114 0
1 -112 -176 0
1 -112 -96 0
1 -114 -104 0
1 -114 -101 0
1 114 93 0
1 114 -88 0
1 114 -103 0
1 114 176 0
1 -114 -96 0
1 -114 80 0
1 88 90 0
1 -88 -177 0
1 -88 178 0
1 88 114 0
1 -88 -17 0
1 88 179 0
1 -90 108 0
1 90 20 0
1 -90 97 0
1 -90 105 0
1 -90 -178 0
1 -90 -109 0
1 -90 114 0
1 -90 -88 0
1 90 -102 0
1 -90 -180 0
1 -93 112 0
1 93 -97 0
1 -93 -105 0
1 -93 177 0
1 93 77 0
1 -93 -102 0
1 93 106 0
1 93 -180 0
1 -93 -181 0
1 -95 182 0
1 95 -169 0
1 -95 97 0
1 95 105 0
1 95 -177 0
1 95 -114 0
1 95 102 0
1 95 -106 0
1 95 180 0
1 -95 181 0
1 108 -169 0
1 108 90 0
1 -108 -104 0
1 108 -101 0
1 -108 49 0
1 108 45 0
1 -108 -109 0
1 -108 88 0
1 -108 -176 0
1 108 43 0
1 109 -108 0
1 -109 -90 0
1 109 104 0
1 109 -101 0
1 109 103 0
1 109 176 0
1 109 96 0
1 -109 43 0
1 183 90 0
1 -183 104 0
1 -183 111 0
1 -183 -88 0
1 -183 -176 0
1 183 184 0
1 183 181 0
1 -178 90 0
1 178 -104 0
1 178 -113 0
1 178 111 0
1 -178 185 0
1 -178 88 0
1 -178 103 0
1 -178 176 0
1 178 184 0
1 176 108 0
1 176 -101 0
1 176 -186 0
1 -176 178 0
1 176 114 0
1 176 -187 0
1 -176 -188 0
1 176 -189 0
1 -101 108 0
1 -101 -190 0
1 -101 191 0
1 -101 178 0
1 -101 176 0
1 -101 -192 0
1 -101 183 0
1 103 108 0
1 103 -104 0
1 103 186 0
1 -103 193 0
1 -103 -177 0
1 103 -178 0
1 -103 -114 0
1 -103 -39 0
1 -103 194 0
1 103 -188 0
1 103 195 0
1 -103 -180 0
1 104 108 0
1 104 -112 0
1 104 41 0
1 -104 186 0
1 104 193 0
1 -104 178 0
1 104 -114 0
1 104 -103 0
1 -104 195 0
1 104 -183 0
1 -189 -191 0
1 -189 176 0
1 189 184 0
1 -189 -110 0
1 191 101 0
1 191 113 0
1 -191 177 0
1 191 176 0
1 -191 110 0
1 191 189 0
1 192 -190 0
1 -192 -111 0
1 -192 184 0
1 190 -101 0
1 -190 -113 0
1 190 111 0
1 190 -193 0
1 -110 -196 0
1 -110 190 0
1 110 -191 0
1 110 178 0
1 110 -189 0
1 110 183 0
1 -111 110 0
1 -111 -190 0
1 111 197 0
1 111 178 0
1 -111 198 0
1 111 -183 0
1 184 196 0
1 -184 -113 0
1 184 -190 0
1 -184 -191 0
1 -184 -198 0
1 184 199 0
1 -184 96 0
1 -184 -188 0
1 -184 200 0
1 184 -183 0
1 113 196 0
1 113 49 0
1 113 -201 0
1 113 -190 0
1 113 -191 0
1 113 -178 0
1 113 -198 0
1 113 199 0
1 -113 -184 0
1 113 188 0
1 113 189 0
1 -120 -202 0
1 -120 115 0
1 203 -204 0
1 203 117 0
1 -203 205 0
1 -203 -206 0
1 127 204 0
1 -127 -207 0
1 127 -208 0
1 127 -206 0
1 -127 -122 0
1 207 -204 0
1 207 58 0
1 -207 202 0
1 207 205 0
1 -207 209 0
1 -202 135 0
1 -202 -207 0
1 -202 -210 0
1 -202 -203 0
1 202 -134 0
1 -202 -206 0
1 -202 131 0
1 202 120 0
1 -206 -133 0
1 -206 -207 0
1 -206 -203 0
1 206 120 0
1 -204 207 0
1 204 -203 0
1 204 -205 0
1 204 -127 0
1 204 -120 0
1 -205 204 0
1 -205 207 0
1 205 203 0
1 205 127 0
1 -205 -120 0
1 131 -116 0
1 -131 -135 0
1 -131 202 0
1 131 -208 0
1 -131 -65 0
1 -131 -206 0
1 131 -209 0
1 -135 116 0
1 135 -202 0
1 -135 211 0
1 135 208 0
1 135 -118 0
1 135 -206 0
1 135 131 0
1 -135 -212 0
1 -134 -213 0
1 -134 -116 0
1 134 211 0
1 134 208 0
1 134 214 0
1 134 215 0
1 134 118 0
1 134 -212 0
1 -134 209 0
1 -133 213 0
1 133 -216 0
1 133 -116 0
1 -133 202 0
1 133 208 0
1 133 214 0
1 -133 215 0
1 -133 118 0
1 -133 206 0
1 133 -212 0
1 208 -143 0
1 -208 128 0
1 -208 133 0
1 -208 -217 0
1 208 -218 0
1 -208 -140 0
1 208 129 0
1 -208 131 0
1 -208 127 0
1 -209 219 0
1 209 220 0
1 209 143 0
1 209 -133 0
1 -209 135 0
1 209 -140 0
1 -209 134 0
1 -209 131 0
1 -211 212 0
1 -211 -133 0
1 -211 135 0
1 211 221 0
1 -211 -218 0
1 211 -131 0
1 211 127 0
1 -212 220 0
1 212 -135 0
1 -212 207 0
1 212 -211 0
1 -212 -218 0
1 212 131 0
1 212 127 0
1 212 -222 0
1 129 213 0
1 129 119 0
1 -129 116 0
1 129 -123 0
1 -129 -208 0
1 129 -118 0
1 129 -209 0
1 -128 216 0
1 128 -61 0
1 -128 -121 0
1 128 -214 0
1 128 215 0
1 128 129 0
1 128 -125 0
1 -128 209 0
1 140 -216 0
1 -140 143 0
1 140 -130 0
1 -140 -123 0
1 140 -74 0
1 -140 -215 0
1 -140 -223 0
1 140 224 0
1 -143 -213 0
1 143 -75 0
1 143 -216 0
1 -143 132 0
1 -143 130 0
1 143 214 0
1 -143 223 0
1 143 224 0
1 143 -125 0
1 215 142 0
1 -215 216 0
1 -215 128 0
1 -215 225 0
1 215 140 0
1 215 226 0
1 215 -157 0
1 -216 142 0
1 216 143 0
1 -216 152 0
1 216 138 0
1 -216 215 0
1 216 140 0
1 -216 129 0
1 216 -134 0
1 -216 -157 0
1 214 -213 0
1 -214 220 0
1 -214 143 0
1 214 133 0
1 -214 -225 0
1 -214 -227 0
1 214 -218 0
1 -214 228 0
1 214 -129 0
1 214 134 0
1 -214 -229 0
1 213 -230 0
1 -213 231 0
1 213 143 0
1 213 128 0
1 -213 -133 0
1 -213 225 0
1 -213 214 0
1 213 -218 0
1 213 -140 0
1 -213 -129 0
1 -213 229 0
1 -138 -142 0
1 -138 216 0
1 -138 -130 0
1 138 -124 0
1 -138 -146 0
1 138 73 0
1 -138 -215 0
1 138 -223 0
1 138 -224 0
1 138 -126 0
1 142 216 0
1 142 -130 0
1 -142 124 0
1 142 138 0
1 142 -215 0
1 142 224 0
1 142 -125 0
1 142 137 0
1 152 -132 0
1 152 130 0
1 -152 -144 0
1 -152 -232 0
1 152 146 0
1 152 -227 0
1 152 -215 0
1 -152 224 0
1 -152 -139 0
1 152 -157 0
1 -157 -216 0
1 157 132 0
1 157 -130 0
1 157 146 0
1 157 -223 0
1 157 -141 0
1 -157 137 0
1 -157 -85 0
1 224 -142 0
1 -224 233 0
1 224 -149 0
1 -224 -234 0
1 -224 152 0
1 -224 -138 0
1 224 -161 0
1 -224 150 0
1 -224 157 0
1 130 -143 0
1 130 -121 0
1 130 235 0
1 -130 233 0
1 -130 236 0
1 -130 -149 0
1 -130 -152 0
1 -130 -138 0
1 130 161 0
1 -130 -150 0
1 130 157 0
1 -223 -142 0
1 223 -132 0
1 -223 225 0
1 -223 152 0
1 -223 -138 0
1 -223 -118 0
1 223 -237 0
1 223 238 0
1 -223 -229 0
1 223 -157 0
1 132 142 0
1 132 -239 0
1 132 -233 0
1 -132 240 0
1 -132 -225 0
1 132 -138 0
1 132 -223 0
1 -132 -238 0
1 -132 241 0
1 149 -232 0
1 149 -146 0
1 -149 -225 0
1 -149 -136 0
1 149 -66 0
1 -149 -141 0
1 -149 150 0
1 -150 -145 0
1 -150 147 0
1 150 -130 0
1 -150 144 0
1 -150 -146 0
1 150 149 0
1 150 66 0
1 150 141 0
1 150 81 0
1 -150 229 0
1 236 -242 0
1 236 147 0
1 -236 -92 0
1 -236 232 0
1 236 -240 0
1 236 139 0
1 -236 151 0
1 -161 130 0
1 161 236 0
1 161 243 0
1 -161 -244 0
1 161 241 0
1 -161 139 0
1 161 151 0
1 -139 245 0
1 139 167 0
1 -139 -158 0
1 139 -149 0
1 -139 -246 0
1 -139 -168 0
1 139 160 0
1 -139 161 0
1 -139 -150 0
1 139 247 0
1 -139 -157 0
1 232 -158 0
1 -232 248 0
1 232 149 0
1 -232 -152 0
1 232 168 0
1 232 160 0
1 232 139 0
1 232 150 0
1 141 249 0
1 141 -233 0
1 -141 -246 0
1 141 250 0
1 -141 238 0
1 -141 -251 0
1 141 -150 0
1 144 245 0
1 144 123 0
1 144 -233 0
1 -144 -236 0
1 -144 -252 0
1 -144 -149 0
1 -144 -152 0
1 -144 246 0
1 144 -238 0
1 -144 -161 0
1 144 -150 0
1 -144 157 0
1 -158 -147 0
1 -158 154 0
1 158 -86 0
1 158 -232 0
1 -158 -243 0
1 -158 66 0
1 -158 153 0
1 158 -139 0
1 160 -147 0
1 -160 154 0
1 160 -158 0
1 -160 -232 0
1 -160 243 0
1 -160 -244 0
1 160 -66 0
1 -160 155 0
1 -160 91 0
1 160 -238 0
1 160 151 0
1 -167 242 0
1 167 -253 0
1 -167 -254 0
1 -167 105 0
1 -167 243 0
1 -167 -244 0
1 167 255 0
1 -167 159 0
1 -167 168 0
1 167 -139 0
1 -168 -242 0
1 168 -254 0
1 168 167 0
1 168 232 0
1 168 -244 0
1 168 -255 0
1 168 159 0
1 -168 -155 0
1 -168 106 0
1 168 -250 0
1 -168 -139 0
1 -168 151 0
1 -242 256 0
1 242 -174 0
1 242 -257 0
1 -242 -165 0
1 242 -167 0
1 -242 -158 0
1 242 -236 0
1 -242 258 0
1 242 173 0
1 242 -164 0
1 -242 168 0
1 242 -160 0
1 -244 -174 0
1 -244 158 0
1 244 236 0
1 -244 -136 0
1 244 258 0
1 -244 173 0
1 -244 259 0
1 244 -168 0
1 -244 -160 0
1 244 -161 0
1 151 -260 0
1 -151 256 0
1 151 261 0
1 151 245 0
1 151 158 0
1 -151 -258 0
1 151 -262 0
1 151 168 0
1 151 160 0
1 151 -161 0
1 151 137 0
1 243 256 0
1 243 261 0
1 243 245 0
1 243 167 0
1 -243 -158 0
1 -243 -146 0
1 243 -263 0
1 -243 -258 0
1 243 262 0
1 -243 -168 0
1 -243 -160 0
1 243 161 0
1 165 242 0
1 165 245 0
1 165 -154 0
1 -165 72 0
1 165 162 0
1 -165 255 0
1 -165 -164 0
1 165 -159 0
1 -165 156 0
1 165 -83 0
1 -164 -242 0
1 -164 253 0
1 -164 -254 0
1 -164 -154 0
1 164 72 0
1 164 -162 0
1 164 244 0
1 -164 -102 0
1 -164 156 0
1 -174 242 0
1 174 112 0
1 -174 261 0
1 174 -254 0
1 174 -264 0
1 174 163 0
1 174 162 0
1 174 -244 0
1 174 -255 0
1 174 -166 0
1 -173 -242 0
1 -173 -253 0
1 173 264 0
1 173 163 0
1 -173 -244 0
1 -173 114 0
1 173 262 0
1 -173 -255 0
1 173 -159 0
1 -173 166 0
1 -173 -83 0
1 -254 174 0
1 -254 265 0
1 -254 -170 0
1 -254 181 0
1 -159 -169 0
1 -159 174 0
1 159 -167 0
1 159 -266 0
1 -159 -170 0
1 159 -267 0
1 -159 168 0
1 159 -181 0
1 253 -268 0
1 -253 -256 0
1 -253 -147 0
1 253 165 0
1 -253 -167 0
1 -253 -266 0
1 253 269 0
1 253 258 0
1 253 -173 0
1 253 255 0
1 253 -164 0
1 -253 168 0
1 255 -268 0
1 -255 266 0
1 255 66 0
1 255 270 0
1 255 168 0
1 169 -256 0
1 169 254 0
1 -169 -264 0
1 -169 162 0
1 169 170 0
1 -169 -93 0
1 169 271 0
1 -169 -166 0
1 -169 -80 0
1 -169 -95 0
1 -170 -254 0
1 170 -78 0
1 170 -109 0
1 -170 93 0
1 -170 -159 0
1 -170 -271 0
1 170 -166 0
1 170 -95 0
1 181 264 0
1 -181 163 0
1 181 -172 0
1 -181 -185 0
1 181 -272 0
1 181 93 0
1 -181 183 0
1 -185 -254 0
1 -185 163 0
1 -185 272 0
1 185 269 0
1 185 159 0
1 185 166 0
1 -185 95 0
1 -163 -169 0
1 163 174 0
1 163 -166 0
1 -163 273 0
1 163 274 0
1 163 177 0
1 -163 -185 0
1 -163 170 0
1 -163 173 0
1 163 195 0
1 163 180 0
1 -163 -181 0
1 166 169 0
1 -166 174 0
1 166 -273 0
1 -166 185 0
1 -166 170 0
1 166 173 0
1 166 -275 0
1 166 195 0
1 166 -180 0
1 166 181 0
1 -264 -169 0
1 -264 174 0
1 264 -154 0
1 264 -276 0
1 -264 -277 0
1 264 185 0
1 -264 170 0
1 264 -173 0
1 -264 271 0
1 -271 169 0
1 -271 -273 0
1 271 -264 0
1 -271 155 0
1 271 -278 0
1 -271 -181 0
1 -180 -90 0
1 180 -163 0
1 -180 177 0
1 180 172 0
1 180 93 0
1 -180 88 0
1 180 166 0
1 180 -175 0
1 180 -189 0
1 -177 90 0
1 -177 -191 0
1 177 -172 0
1 177 272 0
1 177 88 0
1 177 171 0
1 177 166 0
1 177 -175 0
1 -177 180 0
1 -177 -95 0
1 -195 -279 0
1 -195 -104 0
1 195 163 0
1 -195 -272 0
1 -195 179 0
1 -195 103 0
1 195 -166 0
1 -195 192 0
1 -195 175 0
1 -195 -278 0
1 -195 171 0
1 -193 -172 0
1 193 -175 0
1 -193 -272 0
1 -193 280 0
1 -193 -103 0
1 193 166 0
1 -272 281 0
1 -272 282 0
1 272 -186 0
1 -272 -193 0
1 -272 78 0
1 272 283 0
1 -272 -199 0
1 272 188 0
1 -272 -195 0
1 272 181 0
1 171 -282 0
1 -171 186 0
1 171 -193 0
1 -171 -177 0
1 171 -195 0
1 171 80 0
1 -171 -180 0
1 -171 284 0
1 172 -281 0
1 -172 285 0
1 172 273 0
1 -172 -193 0
1 -172 -177 0
1 172 -286 0
1 172 185 0
1 -172 -175 0
1 172 283 0
1 172 -287 0
1 -172 195 0
1 172 180 0
1 -172 181 0
1 -175 285 0
1 175 273 0
1 175 177 0
1 175 -172 0
1 -175 185 0
1 175 283 0
1 -175 287 0
1 175 275 0
1 175 -83 0
1 -175 181 0
1 -188 -101 0
1 -188 186 0
1 188 179 0
1 -188 -103 0
1 -188 176 0
1 188 275 0
1 186 182 0
1 -186 279 0
1 186 -101 0
1 -186 113 0
1 -186 -273 0
1 186 -272 0
1 -186 280 0
1 -186 103 0
1 199 -182 0
1 -199 279 0
1 199 -282 0
1 199 287 0
1 -199 -194 0
1 199 187 0
1 282 -182 0
1 -282 279 0
1 -282 -285 0
1 -282 -113 0
1 -282 -272 0
1 282 -194 0
1 282 -199 0
1 -282 -184 0
1 179 288 0
1 -179 -196 0
1 -179 -193 0
1 179 -88 0
1 179 -199 0
1 -179 188 0
1 179 -195 0
1 -279 -288 0
1 279 90 0
1 -279 196 0
1 -279 -282 0
1 -279 -186 0
1 -279 193 0
1 279 -289 0
1 -280 -182 0
1 280 -290 0
1 280 281 0
1 -280 282 0
1 280 186 0
1 -280 193 0
1 280 93 0
1 280 -291 0
1 280 292 0
1 -280 -199 0
1 280 188 0
1 182 293 0
1 182 290 0
1 182 281 0
1 182 -282 0
1 182 186 0
1 182 280 0
1 -182 -283 0
1 182 188 0
1 -182 -195 0
1 182 -95 0
1 -198 279 0
1 -198 294 0
1 -198 -295 0
1 -198 111 0
1 198 179 0
1 198 -283 0
1 198 194 0
1 198 -184 0
1 -196 -279 0
1 -196 -179 0
1 -196 -194 0
1 196 187 0
1 289 -288 0
1 289 -294 0
1 289 -295 0
1 289 201 0
1 -289 194 0
1 289 -187 0
1 289 -296 0
1 -288 -290 0
1 -288 279 0
1 -288 -197 0
1 -288 -289 0
1 -288 -179 0
1 288 194 0
1 288 187 0
1 -187 196 0
1 -187 -282 0
1 -187 -297 0
1 187 -289 0
1 187 198 0
1 -187 -298 0
1 -295 -288 0
1 -295 282 0
1 295 -101 0
1 295 -198 0
1 -295 -187 0
1 295 -298 0
1 -295 -299 0
1 -194 -288 0
1 -194 294 0
1 -194 -282 0
1 194 -103 0
1 194 199 0
1 294 196 0
1 294 -104 0
1 294 291 0
1 -294 289 0
1 -294 198 0
1 -294 194 0
1 -294 199 0
1 294 300 0
1 301 -201 0
1 301 291 0
1 301 299 0
1 -301 200 0
1 -299 -293 0
1 -299 295 0
1 299 201 0
1 299 197 0
1 -299 -187 0
1 299 -200 0
1 -297 -201 0
1 297 197 0
1 297 187 0
1 -297 -200 0
1 -298 295 0
1 298 -201 0
1 -298 297 0
1 -298 -200 0
1 296 -197 0
1 296 -297 0
1 -296 -289 0
1 296 -110 0
1 -296 298 0
1 296 -299 0
1 -197 -288 0
1 -197 297 0
1 197 -301 0
1 197 289 0
1 197 298 0
1 197 299 0
1 -200 288 0
1 200 -297 0
1 200 289 0
1 -200 -298 0
1 -200 -299 0
1 -201 113 0
1 201 -301 0
1 -201 200 0
1 201 299 0
1 -218 220 0
1 -218 302 0
1 218 -211 0
1 218 214 0
1 218 -303 0
1 -218 -304 0
1 218 -212 0
1 218 209 0
1 220 142 0
1 -220 302 0
1 -220 -210 0
1 220 211 0
1 -220 -214 0
1 220 218 0
1 -220 -304 0
1 220 212 0
1 -220 -209 0
1 227 -230 0
1 227 213 0
1 -227 219 0
1 227 210 0
1 227 -217 0
1 227 214 0
1 -227 303 0
1 -227 -304 0
1 -230 -219 0
1 230 -302 0
1 -230 -210 0
1 230 227 0
1 -230 214 0
1 230 -217 0
1 230 303 0
1 230 -157 0
1 -210 220 0
1 -210 -240 0
1 -210 225 0
1 -210 227 0
1 -210 -218 0
1 -210 241 0
1 -210 -304 0
1 304 -220 0
1 -304 -240 0
1 304 -210 0
1 -304 225 0
1 304 218 0
1 -304 -206 0
1 -304 241 0
1 -304 -229 0
1 -302 204 0
1 303 -220 0
1 303 302 0
1 -303 -305 0
1 -303 -227 0
1 303 -218 0
1 -303 -205 0
1 -225 -219 0
1 225 -216 0
1 -225 -132 0
1 -225 -149 0
1 -225 -221 0
1 -225 -214 0
1 -225 215 0
1 -225 -223 0
1 -225 304 0
1 -225 -229 0
1 -229 213 0
1 229 132 0
1 229 -210 0
1 229 225 0
1 229 221 0
1 -229 -217 0
1 -229 -150 0
1 229 222 0
1 240 -219 0
1 -240 306 0
1 240 -132 0
1 240 -236 0
1 240 210 0
1 -240 -221 0
1 240 -217 0
1 240 -226 0
1 240 223 0
1 -240 -241 0
1 240 222 0
1 -240 -304 0
1 -241 231 0
1 241 -306 0
1 -241 -132 0
1 -241 -210 0
1 -241 221 0
1 -241 217 0
1 241 228 0
1 -241 -226 0
1 241 -223 0
1 241 161 0
1 217 -219 0
1 217 249 0
1 217 233 0
1 217 -240 0
1 -217 -208 0
1 217 307 0
1 -217 -308 0
1 -217 250 0
1 -217 241 0
1 217 -229 0
1 219 -230 0
1 -219 309 0
1 -219 -249 0
1 219 -240 0
1 219 227 0
1 -219 -250 0
1 219 -238 0
1 -219 209 0
1 221 -230 0
1 221 222 0
1 -221 240 0
1 -221 211 0
1 221 -225 0
1 -221 -227 0
1 -221 -241 0
1 221 229 0
1 -222 230 0
1 -222 -310 0
1 -222 240 0
1 222 225 0
1 222 212 0
1 222 229 0
1 -222 311 0
1 233 219 0
1 233 231 0
1 -233 306 0
1 233 130 0
1 233 -144 0
1 233 217 0
1 -233 -226 0
1 233 -238 0
1 238 -231 0
1 -238 306 0
1 238 132 0
1 -238 130 0
1 238 233 0
1 -238 -223 0
1 238 160 0
1 249 219 0
1 249 -231 0
1 -249 239 0
1 249 -144 0
1 -249 228 0
1 249 -250 0
1 249 -234 0
1 250 -219 0
1 -250 -231 0
1 250 -239 0
1 250 -249 0
1 250 -235 0
1 -250 -217 0
1 250 228 0
1 -250 226 0
1 -250 168 0
1 250 237 0
1 250 234 0
1 -226 312 0
1 -226 -261 0
1 226 -306 0
1 226 245 0
1 -226 249 0
1 -226 -233 0
1 -226 -240 0
1 -226 262 0
1 -226 -215 0
1 226 250 0
1 226 241 0
1 -306 -216 0
1 -306 245 0
1 -306 -313 0
1 -306 -249 0
1 -306 233 0
1 -306 -240 0
1 -306 -314 0
1 306 -262 0
1 306 246 0
1 306 226 0
1 -306 -250 0
1 306 238 0
1 -306 241 0
1 228 231 0
1 228 -312 0
1 -228 315 0
1 228 233 0
1 228 -240 0
1 -228 314 0
1 -228 -316 0
1 228 250 0
1 231 -213 0
1 231 -312 0
1 -231 317 0
1 231 -315 0
1 231 233 0
1 231 228 0
1 231 -308 0
1 -231 250 0
1 231 -238 0
1 245 239 0
1 245 144 0
1 245 -232 0
1 245 -139 0
1 246 -245 0
1 -246 239 0
1 -246 -144 0
1 246 243 0
1 246 164 0
1 -246 -226 0
1 246 -308 0
1 246 237 0
1 -246 234 0
1 -246 141 0
1 -246 -151 0
1 261 174 0
1 261 315 0
1 -261 -239 0
1 -261 235 0
1 -261 -248 0
1 -261 243 0
1 -261 -262 0
1 -261 -237 0
1 -261 -234 0
1 -261 247 0
1 261 151 0
1 -262 -306 0
1 -262 -239 0
1 -262 -248 0
1 -262 -173 0
1 -262 237 0
1 -262 247 0
1 -234 -256 0
1 -234 -261 0
1 234 249 0
1 234 -318 0
1 -234 -269 0
1 -234 258 0
1 234 246 0
1 234 -224 0
1 -234 319 0
1 -234 320 0
1 -235 -256 0
1 -235 -261 0
1 -235 245 0
1 235 -249 0
1 -235 318 0
1 235 269 0
1 235 -258 0
1 235 -262 0
1 -235 -246 0
1 -235 -250 0
1 -235 234 0
1 237 321 0
1 -237 -261 0
1 -237 -239 0
1 237 -249 0
1 -237 -318 0
1 237 -262 0
1 237 246 0
1 237 -250 0
1 -237 -322 0
1 239 321 0
1 -239 -261 0
1 -239 245 0
1 239 237 0
1 -239 -132 0
1 -239 249 0
1 -239 -323 0
1 -239 -318 0
1 -239 324 0
1 -239 -314 0
1 -239 262 0
1 -239 246 0
1 239 -320 0
1 -256 -169 0
1 -256 258 0
1 256 -234 0
1 -256 -247 0
1 -256 -151 0
1 258 -242 0
1 258 -256 0
1 258 -235 0
1 -258 252 0
1 -258 -248 0
1 258 -243 0
1 -258 -170 0
1 -258 255 0
1 258 234 0
1 -258 151 0
1 268 260 0
1 268 -257 0
1 -268 -252 0
1 -268 -248 0
1 268 269 0
1 -268 -259 0
1 268 -251 0
1 268 247 0
1 268 181 0
1 -269 -260 0
1 269 257 0
1 -269 -252 0
1 269 -248 0
1 -269 185 0
1 -269 -251 0
1 -269 -247 0
1 247 -268 0
1 -247 277 0
1 -247 248 0
1 247 -269 0
1 -247 258 0
1 247 -262 0
1 -247 325 0
1 -247 139 0
1 248 -256 0
1 -248 261 0
1 248 -326 0
1 248 -277 0
1 -248 -262 0
1 248 -247 0
1 251 -268 0
1 -251 252 0
1 251 327 0
1 -251 -318 0
1 -251 -269 0
1 -251 -258 0
1 251 325 0
1 -251 -141 0
1 -251 -328 0
1 -252 268 0
1 252 -326 0
1 -252 -258 0
1 252 -262 0
1 -252 325 0
1 252 251 0
1 -252 -328 0
1 -252 320 0
1 -266 -260 0
1 266 -257 0
1 -266 177 0
1 -266 -318 0
1 266 -263 0
1 -266 -259 0
1 -266 -255 0
1 -266 -271 0
1 266 247 0
1 -278 329 0
1 278 265 0
1 278 264 0
1 278 -277 0
1 278 -248 0
1 -278 259 0
1 278 -270 0
1 -278 271 0
1 278 -195 0
1 -277 260 0
1 277 -329 0
1 -277 -265 0
1 -277 264 0
1 -277 -327 0
1 -277 248 0
1 -277 -259 0
1 -277 -271 0
1 -277 278 0
1 277 -247 0
1 -257 268 0
1 257 -330 0
1 257 -266 0
1 -257 259 0
1 257 -331 0
1 257 287 0
1 257 275 0
1 -259 330 0
1 259 -285 0
1 -259 277 0
1 259 -269 0
1 259 275 0
1 -259 278 0
1 260 -268 0
1 -260 -332 0
1 -260 277 0
1 -260 -269 0
1 -260 -331 0
1 -260 278 0
1 260 151 0
1 -263 268 0
1 263 332 0
1 -263 266 0
1 263 -243 0
1 -275 257 0
1 275 329 0
1 -275 273 0
1 275 264 0
1 275 -163 0
1 275 -172 0
1 -275 188 0
1 275 325 0
1 275 175 0
1 273 -264 0
1 -273 172 0
1 -273 -259 0
1 -273 -270 0
1 -273 271 0
1 -287 -329 0
1 -287 285 0
1 -287 265 0
1 -287 -274 0
1 287 -172 0
1 287 259 0
1 287 -270 0
1 -287 -267 0
1 287 333 0
1 -287 -334 0
1 287 175 0
1 285 -282 0
1 285 -332 0
1 285 265 0
1 285 276 0
1 285 274 0
1 -285 172 0
1 -285 259 0
1 285 -270 0
1 -285 287 0
1 285 -335 0
1 -285 -334 0
1 265 336 0
1 -265 -281 0
1 265 -254 0
1 -265 -337 0
1 -265 283 0
1 -265 267 0
1 -265 287 0
1 265 -275 0
1 267 -290 0
1 -267 -281 0
1 -267 -285 0
1 -267 -265 0
1 267 -273 0
1 -267 -277 0
1 -267 -337 0
1 -267 -292 0
1 267 -159 0
1 267 -287 0
1 -267 275 0
1 329 -338 0
1 329 -253 0
1 329 -330 0
1 329 -285 0
1 -329 273 0
1 329 337 0
1 -329 -270 0
1 -329 -331 0
1 -270 -336 0
1 270 338 0
1 -270 -285 0
1 -270 329 0
1 270 277 0
1 -270 -337 0
1 -270 255 0
1 -270 -287 0
1 -270 275 0
1 283 182 0
1 283 281 0
1 -283 265 0
1 283 276 0
1 -283 -274 0
1 -283 -272 0
1 283 335 0
1 -283 -175 0
1 -283 -171 0
1 -281 -182 0
1 -281 -196 0
1 281 265 0
1 281 -172 0
1 281 -283 0
1 -281 267 0
1 -281 335 0
1 281 -334 0
1 -281 175 0
1 -292 265 0
1 -292 286 0
1 -292 339 0
1 -292 -267 0
1 -292 335 0
1 292 340 0
1 -292 284 0
1 290 -265 0
1 290 274 0
1 -290 339 0
1 -290 -280 0
1 290 -292 0
1 -290 267 0
1 -290 340 0
1 -290 -284 0
1 -274 281 0
1 274 -341 0
1 -274 -291 0
1 -274 -283 0
1 274 -287 0
1 -274 334 0
1 -274 300 0
1 334 -290 0
1 -334 285 0
1 -334 274 0
1 -334 -341 0
1 -334 -291 0
1 -334 -292 0
1 334 -283 0
1 334 287 0
1 334 -166 0
1 -276 -336 0
1 -276 290 0
1 -276 -281 0
1 -276 264 0
1 276 -342 0
1 -276 337 0
1 276 -292 0
1 -276 -335 0
1 -276 343 0
1 335 290 0
1 335 285 0
1 335 -276 0
1 335 -342 0
1 -335 -337 0
1 -335 -271 0
1 291 -279 0
1 -291 294 0
1 291 -339 0
1 291 -280 0
1 -291 337 0
1 -291 334 0
1 -293 -279 0
1 293 294 0
1 293 339 0
1 -293 280 0
1 293 -194 0
1 293 -334 0
1 293 -284 0
1 341 -294 0
1 -341 -286 0
1 341 339 0
1 -341 342 0
1 -341 -194 0
1 341 -340 0
1 341 300 0
1 300 -294 0
1 -300 -274 0
1 -300 286 0
1 -300 -194 0
1 300 284 0
1 339 -293 0
1 339 290 0
1 -339 341 0
1 -339 -291 0
1 -339 284 0
1 -339 300 0
1 -284 293 0
1 -284 290 0
1 284 339 0
1 -284 291 0
1 284 -171 0
1 -286 293 0
1 -286 -291 0
1 -286 340 0
1 -286 -300 0
1 340 293 0
1 -340 -290 0
1 340 -341 0
1 -340 292 0
1 -340 175 0
1 -310 245 0
1 -310 -344 0
1 -310 221 0
1 -310 228 0
1 310 308 0
1 -310 -305 0
1 -310 345 0
1 310 -222 0
1 -308 -219 0
1 -308 231 0
1 308 346 0
1 -308 -217 0
1 -308 -228 0
1 308 -305 0
1 315 261 0
1 315 347 0
1 315 -307 0
1 315 -228 0
1 315 348 0
1 315 345 0
1 -348 309 0
1 348 -315 0
1 -348 -262 0
1 344 315 0
1 -344 310 0
1 344 210 0
1 344 349 0
1 344 314 0
1 -344 308 0
1 -344 345 0
1 345 -312 0
1 -345 324 0
1 345 348 0
1 345 308 0
1 -345 350 0
1 346 -315 0
1 346 -302 0
1 346 348 0
1 -346 308 0
1 346 305 0
1 305 346 0
1 305 -348 0
1 -305 -308 0
1 -305 303 0
1 -305 351 0
1 312 -309 0
1 -312 -347 0
1 312 -228 0
1 -312 345 0
1 314 309 0
1 314 -231 0
1 -314 -258 0
1 314 -237 0
1 314 -345 0
1 -314 311 0
1 321 -317 0
1 321 -313 0
1 -321 -239 0
1 -321 344 0
1 -321 324 0
1 -321 -347 0
1 321 -307 0
1 -321 -316 0
1 321 -352 0
1 321 237 0
1 321 -345 0
1 -324 -321 0
1 -324 -313 0
1 -324 -347 0
1 -324 -307 0
1 324 352 0
1 324 -345 0
1 -324 311 0
1 -307 -321 0
1 -307 309 0
1 307 312 0
1 307 -315 0
1 -307 353 0
1 307 -324 0
1 -307 217 0
1 -307 314 0
1 -307 -354 0
1 307 348 0
1 -307 328 0
1 309 219 0
1 309 -321 0
1 -309 355 0
1 309 -312 0
1 309 327 0
1 309 307 0
1 -309 348 0
1 -309 -356 0
1 309 -320 0
1 347 -321 0
1 -347 -312 0
1 347 221 0
1 -347 314 0
1 347 357 0
1 -347 356 0
1 311 312 0
1 311 222 0
1 311 -353 0
1 -311 -324 0
1 311 347 0
1 -311 348 0
1 -320 309 0
1 -320 317 0
1 -320 -239 0
1 -320 -252 0
1 320 -307 0
1 320 -316 0
1 -320 352 0
1 318 309 0
1 318 -317 0
1 -318 313 0
1 318 -316 0
1 318 237 0
1 -318 -234 0
1 318 -320 0
1 328 -309 0
1 -328 -313 0
1 328 323 0
1 328 -307 0
1 -328 316 0
1 328 278 0
1 327 -313 0
1 -327 323 0
1 -327 -358 0
1 327 -252 0
1 -327 307 0
1 327 -352 0
1 327 -251 0
1 327 328 0
1 352 -359 0
1 -352 -332 0
1 352 326 0
1 352 -327 0
1 -352 324 0
1 -352 360 0
1 -352 333 0
1 -352 320 0
1 -313 321 0
1 313 306 0
1 -313 326 0
1 313 -327 0
1 -313 -318 0
1 -313 352 0
1 313 333 0
1 313 325 0
1 313 328 0
1 316 321 0
1 316 361 0
1 316 353 0
1 -316 -327 0
1 -316 318 0
1 316 324 0
1 -316 -228 0
1 316 362 0
1 -317 -321 0
1 317 -363 0
1 317 -359 0
1 317 361 0
1 -317 -353 0
1 -317 -327 0
1 -317 -316 0
1 -317 -360 0
1 317 -356 0
1 325 -260 0
1 -325 -313 0
1 -325 -323 0
1 -325 -252 0
1 325 -322 0
1 -325 263 0
1 -325 319 0
1 -325 352 0
1 325 -275 0
1 325 356 0
1 -325 251 0
1 325 -247 0
1 326 -260 0
1 -326 -313 0
1 -326 323 0
1 326 -353 0
1 326 -252 0
1 326 -263 0
1 -326 352 0
1 326 -322 0
1 326 -325 0
1 -326 319 0
1 -326 -247 0
1 -333 -332 0
1 -333 -323 0
1 333 -358 0
1 333 322 0
1 -333 364 0
1 333 287 0
1 333 365 0
1 333 319 0
1 333 366 0
1 332 -260 0
1 332 -313 0
1 -332 -285 0
1 -332 -361 0
1 -332 -323 0
1 332 367 0
1 -332 263 0
1 332 352 0
1 332 -333 0
1 332 366 0
1 -319 -368 0
1 -319 332 0
1 319 -358 0
1 -319 327 0
1 319 369 0
1 319 370 0
1 -319 331 0
1 319 325 0
1 358 -368 0
1 -358 330 0
1 -358 326 0
1 358 235 0
1 358 327 0
1 -358 -369 0
1 358 -333 0
1 -358 -319 0
1 358 -328 0
1 -322 368 0
1 -322 -371 0
1 322 -326 0
1 322 -327 0
1 -322 -372 0
1 322 333 0
1 322 -325 0
1 -322 328 0
1 323 368 0
1 -323 -371 0
1 323 -359 0
1 -323 332 0
1 -323 -326 0
1 -323 327 0
1 323 369 0
1 323 -372 0
1 -323 -360 0
1 -323 322 0
1 323 325 0
1 323 -328 0
1 331 260 0
1 331 -257 0
1 331 358 0
1 331 -364 0
1 -331 367 0
1 331 -263 0
1 331 -259 0
1 -331 319 0
1 -331 373 0
1 -330 329 0
1 330 359 0
1 330 -358 0
1 -330 -367 0
1 330 -270 0
1 370 374 0
1 370 338 0
1 -370 375 0
1 370 329 0
1 370 -358 0
1 370 364 0
1 -370 -367 0
1 -370 376 0
1 -370 -377 0
1 -370 -270 0
1 370 -372 0
1 370 319 0
1 -370 -373 0
1 338 -290 0
1 -338 371 0
1 338 -329 0
1 -338 364 0
1 338 -376 0
1 -338 377 0
1 -338 270 0
1 -338 373 0
1 -338 366 0
1 366 -336 0
1 -366 338 0
1 -366 330 0
1 366 332 0
1 -366 -367 0
1 -366 -370 0
1 -366 -331 0
1 367 -336 0
1 367 -330 0
1 367 366 0
1 -367 332 0
1 -367 -248 0
1 367 -370 0
1 -367 331 0
1 -367 333 0
1 -367 343 0
1 373 368 0
1 -373 -338 0
1 373 -332 0
1 -373 -364 0
1 -373 -378 0
1 -373 369 0
1 373 331 0
1 -373 -333 0
1 -373 -251 0
1 364 -379 0
1 364 -252 0
1 -364 370 0
1 -364 -331 0
1 -337 374 0
1 -337 -329 0
1 337 276 0
1 337 -367 0
1 337 376 0
1 -337 291 0
1 337 -377 0
1 337 270 0
1 337 -267 0
1 -337 -335 0
1 -337 366 0
1 336 293 0
1 336 374 0
1 -336 265 0
1 -336 276 0
1 -336 -367 0
1 -336 376 0
1 336 337 0
1 -336 267 0
1 336 -335 0
1 336 366 0
1 342 -374 0
1 342 -375 0
1 342 367 0
1 342 341 0
1 342 376 0
1 -342 -378 0
1 342 -377 0
1 -342 335 0
1 343 276 0
1 -343 376 0
1 -343 -377 0
1 -343 -335 0
1 375 336 0
1 375 257 0
1 -375 337 0
1 375 -343 0
1 377 338 0
1 377 342 0
1 -377 259 0
1 -377 -337 0
1 377 -370 0
1 377 343 0
1 -374 -260 0
1 -374 338 0
1 -374 342 0
1 -374 -376 0
1 374 -337 0
1 -374 370 0
1 -374 -343 0
1 -376 -336 0
1 376 263 0
1 -376 342 0
1 376 337 0
1 -376 370 0
1 -376 343 0
1 356 -351 0
1 356 -309 0
1 356 317 0
1 -356 380 0
1 -356 349 0
1 356 325 0
1 -356 -350 0
1 -356 311 0
1 353 -309 0
1 353 -326 0
1 -353 349 0
1 -353 316 0
1 -353 -356 0
1 353 -351 0
1 -353 -311 0
1 -365 355 0
1 365 317 0
1 -365 354 0
1 365 316 0
1 365 333 0
1 365 351 0
1 -361 -317 0
1 -361 332 0
1 -361 349 0
1 -361 -357 0
1 361 354 0
1 361 -350 0
1 349 361 0
1 349 -350 0
1 -349 -344 0
1 -349 365 0
1 350 361 0
1 350 -353 0
1 350 -349 0
1 350 360 0
1 350 -365 0
1 -350 356 0
1 -350 -345 0
1 380 -361 0
1 -380 353 0
1 -380 365 0
1 -380 356 0
1 380 351 0
1 351 361 0
1 -351 -305 0
1 -351 -365 0
1 -351 -356 0
1 360 -381 0
1 -360 -355 0
1 -360 354 0
1 360 316 0
1 360 -350 0
1 359 -381 0
1 -359 317 0
1 359 330 0
1 -359 313 0
1 359 323 0
1 -359 357 0
1 359 -316 0
1 -359 -352 0
1 -359 360 0
1 359 322 0
1 372 381 0
1 -372 -371 0
1 -372 -363 0
1 372 349 0
1 372 357 0
1 372 -354 0
1 -372 370 0
1 372 382 0
1 -372 322 0
1 372 350 0
1 -371 355 0
1 -371 -338 0
1 371 -363 0
1 -371 -383 0
1 371 323 0
1 371 -354 0
1 -371 372 0
1 371 -362 0
1 354 379 0
1 -354 368 0
1 -354 355 0
1 354 371 0
1 -354 359 0
1 354 -361 0
1 354 378 0
1 -354 -307 0
1 354 -372 0
1 354 -360 0
1 -354 365 0
1 355 379 0
1 355 -368 0
1 355 359 0
1 -355 -361 0
1 355 -378 0
1 355 -369 0
1 -355 -354 0
1 355 372 0
1 -355 360 0
1 -357 361 0
1 357 347 0
1 -357 372 0
1 357 365 0
1 -381 -361 0
1 381 357 0
1 381 -360 0
1 -381 -365 0
1 381 311 0
1 369 355 0
1 369 -363 0
1 -369 -383 0
1 369 358 0
1 -369 364 0
1 369 354 0
1 369 362 0
1 -369 -322 0
1 -369 -373 0
1 368 355 0
1 368 363 0
1 -368 383 0
1 368 -323 0
1 -368 358 0
1 368 -364 0
1 368 354 0
1 -368 362 0
1 -368 -382 0
1 -368 -322 0
1 -368 -319 0
1 -368 -373 0
1 -378 355 0
1 378 -363 0
1 -378 -342 0
1 -378 -362 0
1 378 -373 0
1 -379 378 0
1 379 -354 0
1 379 362 0
1 379 -382 0
1 -382 379 0
1 382 371 0
1 382 383 0
1 -382 378 0
1 382 -369 0
1 382 -372 0
1 382 -352 0
1 -383 368 0
1 383 -313 0
1 -383 -382 0
1 362 -379 0
1 -362 368 0
1 -362 378 0
1 -362 -369 0
1 362 372 0
1 -363 -378 0
1 -363 -369 0
1 363 -372 0
1 -363 -362 0
